JulietBench/Juliet_Based_Patch_Bench/FFmpeg/CWE-190-Integer-Overflow-or-Wraparound/CVE_2016_2326_7c0b84d89911b2035161f5ef51aafbfcc84aa9e2/Resultasf_write_packet_patch2NEQ.smt2
; benchmark generated from python API
(set-info :status unknown)
(declare-fun R () (_ BitVec 32))
(declare-fun rdi () (_ BitVec 64))
(declare-fun rsi () (_ BitVec 64))
(assert
 (let (($x61 (and (distinct (_ bv0 32) R) true)))
 (let (($x56 (= (_ bv4294967295 32) R)))
 (let (($x15 (= (_ bv9223372036854775808 64) rdi)))
 (let (($x37 (= (_ bv9223372036854775808 64) rsi)))
 (let (($x57 (and $x37 $x15 $x56)))
 (let (($x52 (= (_ bv0 32) R)))
 (let (($x39 (and (distinct (_ bv9223372036854775808 64) rsi) true)))
 (let (($x54 (and $x39 $x15 $x52)))
 (let (($x27 (and (distinct (_ bv9223372036854775808 64) rdi) true)))
 (let (($x53 (and $x27 $x52)))
 (let (($x58 (or $x53 $x54 $x57)))
 (let (($x60 (not $x58)))
 (let (($x62 (and $x60 $x61)))
 (let (($x59 (and $x58 $x52)))
 (let (($x63 (or $x59 $x62)))
 (not $x63)))))))))))))))))
(check-sat)
